solution status: optimal solution found
objective value:                     124356.911478661
d11(0,0)                                            1 	(obj:0)
d11(1,1)                                            1 	(obj:0)
d11(1,2)                                            1 	(obj:0)
d11(2,4)                                            1 	(obj:0)
d11(2,5)                                            1 	(obj:0)
d11(2,7)                                            1 	(obj:0)
d11(2,8)                                            1 	(obj:0)
d11(2,10)                                           1 	(obj:0)
d11(2,11)                                           1 	(obj:0)
d11(3,13)                                           1 	(obj:0)
d11(3,14)                                           1 	(obj:0)
d11(3,15)                                           1 	(obj:0)
d11(3,16)                                           1 	(obj:0)
d11(3,17)                                           1 	(obj:0)
d11(3,18)                                           1 	(obj:0)
d11(3,19)                                           1 	(obj:0)
d11(3,20)                                           1 	(obj:0)
d11(3,21)                                           1 	(obj:0)
d11(3,22)                                           1 	(obj:0)
d11(3,23)                                           1 	(obj:0)
d11(3,24)                                           1 	(obj:0)
d11(3,25)                                           1 	(obj:0)
d11(3,26)                                           1 	(obj:0)
d11(3,28)                                           1 	(obj:0)
d11(3,29)                                           1 	(obj:0)
d11(3,30)                                           1 	(obj:0)
d11(3,31)                                           1 	(obj:0)
d11(3,32)                                           1 	(obj:0)
d11(3,33)                                           1 	(obj:0)
d11(3,34)                                           1 	(obj:0)
d11(3,35)                                           1 	(obj:0)
d11(3,36)                                           1 	(obj:0)
d11(3,37)                                           1 	(obj:0)
d11(3,38)                                           1 	(obj:0)
d11(3,39)                                           1 	(obj:0)
d12(1,3)                                            1 	(obj:0)
d12(2,6)                                            1 	(obj:0)
d12(2,9)                                            1 	(obj:0)
d12(2,12)                                           1 	(obj:0)
d21(3,13)                                           1 	(obj:0)
d21(3,14)                                           1 	(obj:0)
d21(3,15)                                           1 	(obj:0)
d21(3,16)                                           1 	(obj:0)
d21(3,17)                                           1 	(obj:0)
d21(3,19)                                           1 	(obj:0)
d21(3,22)                                           1 	(obj:0)
d21(3,23)                                           1 	(obj:0)
d21(3,25)                                           1 	(obj:0)
d21(3,28)                                           1 	(obj:0)
d21(3,31)                                           1 	(obj:0)
STE(1,1)                             12848.5721400498 	(obj:0)
STE(0,0)                                        15750 	(obj:0)
STE(1,2)                             13845.3381433831 	(obj:0)
STE(1,3)                              14828.880063283 	(obj:0)
STE(2,4)                             9947.14428010014 	(obj:0)
STE(2,5)                             10943.9102834334 	(obj:0)
STE(2,6)                             11927.4522033334 	(obj:0)
STE(2,7)                             10943.9102834334 	(obj:0)
STE(2,8)                             11940.6762867667 	(obj:0)
STE(2,9)                             12924.2182066666 	(obj:0)
STE(2,10)                            11927.4522033334 	(obj:0)
STE(2,11)                            12924.2182066667 	(obj:0)
STE(2,12)                            13907.7601265666 	(obj:0)
STE(3,13)                            6472.92607343348 	(obj:0)
STE(3,14)                            7469.69207676677 	(obj:0)
STE(3,15)                            8687.14428010014 	(obj:0)
STE(3,16)                            7469.69207676677 	(obj:0)
STE(3,17)                            8466.45808010006 	(obj:0)
STE(3,18)                            9683.91028343344 	(obj:0)
STE(3,19)                            8453.23399666671 	(obj:0)
STE(3,20)                                        9450 	(obj:0)
STE(3,21)                            10667.4522033334 	(obj:0)
STE(3,22)                            7469.69207676674 	(obj:0)
STE(3,23)                            8466.45808010003 	(obj:0)
STE(3,24)                            9683.91028343335 	(obj:0)
STE(3,25)                            8466.45808010002 	(obj:0)
STE(3,26)                            9463.22408343331 	(obj:0)
STE(3,27)                            10680.6762867667 	(obj:0)
STE(3,28)                            9449.99999999998 	(obj:0)
STE(3,29)                            10446.7660033333 	(obj:0)
STE(3,30)                            11664.2182066666 	(obj:0)
STE(3,31)                            8453.23399666675 	(obj:0)
STE(3,32)                            9450.00000000001 	(obj:0)
STE(3,33)                            10667.4522033334 	(obj:0)
STE(3,34)                                        9450 	(obj:0)
STE(3,35)                            10446.7660033333 	(obj:0)
STE(3,36)                            11664.2182066667 	(obj:0)
STE(3,37)                            10433.5419198999 	(obj:0)
STE(3,38)                            11430.3079232332 	(obj:0)
STE(3,39)                            12647.7601265666 	(obj:0)
y1(3,23)                             1095.70698300004 	(obj:0)
y1(3,25)                                  1992.796386 	(obj:0)
y1(3,26)                             1095.70698300004 	(obj:0)
y1(3,28)                                  1992.796386 	(obj:0)
y1(3,29)                             1095.70698300004 	(obj:0)
y1(3,31)                                  1992.796386 	(obj:0)
y1(3,32)                             1095.70698300004 	(obj:0)
y1(3,34)                                  1992.796386 	(obj:0)
y1(3,35)                             1095.70698300004 	(obj:0)
y1(3,37)                                  1992.796386 	(obj:0)
y1(3,38)                             1095.70698300004 	(obj:0)
BG(3)                                1204.56299667522 	(obj:10)
AVE(1)                               3199.95851117552 	(obj:0)
AVE(2)                               3265.15049132519 	(obj:0)
AVE(3)                               3291.35535332476 	(obj:0)
WG(1)                                3199.95851117552 	(obj:10)
WG(2)                                3265.15049132519 	(obj:10)
WG(3)                                3291.35535332476 	(obj:10)
BG(1)                                769.927887758348 	(obj:10)
BG(2)                                 704.73590760815 	(obj:10)
y1(1,1)                              1477.28507395518 	(obj:0)
y1(1,2)                              580.195670955243 	(obj:0)
y1(2,4)                              1477.28507395469 	(obj:0)
y1(2,5)                              580.195670954726 	(obj:0)
y1(2,7)                              1477.28507395469 	(obj:0)
y1(2,8)                              580.195670954739 	(obj:0)
y1(2,10)                             1477.28507395469 	(obj:0)
y1(2,11)                             580.195670954726 	(obj:0)
y1(3,13)                                  1992.796386 	(obj:0)
y1(3,14)                             1095.70698300004 	(obj:0)
y1(3,16)                                  1992.796386 	(obj:0)
y1(3,17)                             1095.70698300004 	(obj:0)
y1(3,19)                                  1992.796386 	(obj:0)
y1(3,20)                             1095.70698300004 	(obj:0)
y1(3,22)                                  1992.796386 	(obj:0)
y2(1,3)                              356.715856087401 	(obj:0)
y2(2,6)                               356.71585608798 	(obj:0)
y2(2,9)                              356.715856087981 	(obj:0)
y2(2,12)                             356.715856087981 	(obj:0)
